n = 59;
rows = 1593;
supports = [|
    1,1,
  | 1,18,
  | 1,19,
  | 1,20,
  | 1,21,
  | 1,22,
  | 1,23,
  | 1,24,
  | 1,25,
  | 1,26,
  | 1,27,
  | 1,28,
  | 1,29,
  | 1,30,
  | 1,31,
  | 1,32,
  | 1,33,
  | 1,34,
  | 1,35,
  | 1,36,
  | 1,37,
  | 1,38,
  | 1,39,
  | 1,40,
  | 1,41,
  | 1,42,
  | 1,43,
  | 2,2,
  | 2,19,
  | 2,20,
  | 2,21,
  | 2,22,
  | 2,23,
  | 2,24,
  | 2,25,
  | 2,26,
  | 2,27,
  | 2,28,
  | 2,29,
  | 2,30,
  | 2,31,
  | 2,32,
  | 2,33,
  | 2,34,
  | 2,35,
  | 2,36,
  | 2,37,
  | 2,38,
  | 2,39,
  | 2,40,
  | 2,41,
  | 2,42,
  | 2,43,
  | 2,44,
  | 3,3,
  | 3,20,
  | 3,21,
  | 3,22,
  | 3,23,
  | 3,24,
  | 3,25,
  | 3,26,
  | 3,27,
  | 3,28,
  | 3,29,
  | 3,30,
  | 3,31,
  | 3,32,
  | 3,33,
  | 3,34,
  | 3,35,
  | 3,36,
  | 3,37,
  | 3,38,
  | 3,39,
  | 3,40,
  | 3,41,
  | 3,42,
  | 3,43,
  | 3,44,
  | 3,45,
  | 4,4,
  | 4,21,
  | 4,22,
  | 4,23,
  | 4,24,
  | 4,25,
  | 4,26,
  | 4,27,
  | 4,28,
  | 4,29,
  | 4,30,
  | 4,31,
  | 4,32,
  | 4,33,
  | 4,34,
  | 4,35,
  | 4,36,
  | 4,37,
  | 4,38,
  | 4,39,
  | 4,40,
  | 4,41,
  | 4,42,
  | 4,43,
  | 4,44,
  | 4,45,
  | 4,46,
  | 5,5,
  | 5,22,
  | 5,23,
  | 5,24,
  | 5,25,
  | 5,26,
  | 5,27,
  | 5,28,
  | 5,29,
  | 5,30,
  | 5,31,
  | 5,32,
  | 5,33,
  | 5,34,
  | 5,35,
  | 5,36,
  | 5,37,
  | 5,38,
  | 5,39,
  | 5,40,
  | 5,41,
  | 5,42,
  | 5,43,
  | 5,44,
  | 5,45,
  | 5,46,
  | 5,47,
  | 6,6,
  | 6,23,
  | 6,24,
  | 6,25,
  | 6,26,
  | 6,27,
  | 6,28,
  | 6,29,
  | 6,30,
  | 6,31,
  | 6,32,
  | 6,33,
  | 6,34,
  | 6,35,
  | 6,36,
  | 6,37,
  | 6,38,
  | 6,39,
  | 6,40,
  | 6,41,
  | 6,42,
  | 6,43,
  | 6,44,
  | 6,45,
  | 6,46,
  | 6,47,
  | 6,48,
  | 7,7,
  | 7,24,
  | 7,25,
  | 7,26,
  | 7,27,
  | 7,28,
  | 7,29,
  | 7,30,
  | 7,31,
  | 7,32,
  | 7,33,
  | 7,34,
  | 7,35,
  | 7,36,
  | 7,37,
  | 7,38,
  | 7,39,
  | 7,40,
  | 7,41,
  | 7,42,
  | 7,43,
  | 7,44,
  | 7,45,
  | 7,46,
  | 7,47,
  | 7,48,
  | 7,49,
  | 8,8,
  | 8,25,
  | 8,26,
  | 8,27,
  | 8,28,
  | 8,29,
  | 8,30,
  | 8,31,
  | 8,32,
  | 8,33,
  | 8,34,
  | 8,35,
  | 8,36,
  | 8,37,
  | 8,38,
  | 8,39,
  | 8,40,
  | 8,41,
  | 8,42,
  | 8,43,
  | 8,44,
  | 8,45,
  | 8,46,
  | 8,47,
  | 8,48,
  | 8,49,
  | 8,50,
  | 9,9,
  | 9,26,
  | 9,27,
  | 9,28,
  | 9,29,
  | 9,30,
  | 9,31,
  | 9,32,
  | 9,33,
  | 9,34,
  | 9,35,
  | 9,36,
  | 9,37,
  | 9,38,
  | 9,39,
  | 9,40,
  | 9,41,
  | 9,42,
  | 9,43,
  | 9,44,
  | 9,45,
  | 9,46,
  | 9,47,
  | 9,48,
  | 9,49,
  | 9,50,
  | 9,51,
  | 10,10,
  | 10,27,
  | 10,28,
  | 10,29,
  | 10,30,
  | 10,31,
  | 10,32,
  | 10,33,
  | 10,34,
  | 10,35,
  | 10,36,
  | 10,37,
  | 10,38,
  | 10,39,
  | 10,40,
  | 10,41,
  | 10,42,
  | 10,43,
  | 10,44,
  | 10,45,
  | 10,46,
  | 10,47,
  | 10,48,
  | 10,49,
  | 10,50,
  | 10,51,
  | 10,52,
  | 11,11,
  | 11,28,
  | 11,29,
  | 11,30,
  | 11,31,
  | 11,32,
  | 11,33,
  | 11,34,
  | 11,35,
  | 11,36,
  | 11,37,
  | 11,38,
  | 11,39,
  | 11,40,
  | 11,41,
  | 11,42,
  | 11,43,
  | 11,44,
  | 11,45,
  | 11,46,
  | 11,47,
  | 11,48,
  | 11,49,
  | 11,50,
  | 11,51,
  | 11,52,
  | 11,53,
  | 12,12,
  | 12,29,
  | 12,30,
  | 12,31,
  | 12,32,
  | 12,33,
  | 12,34,
  | 12,35,
  | 12,36,
  | 12,37,
  | 12,38,
  | 12,39,
  | 12,40,
  | 12,41,
  | 12,42,
  | 12,43,
  | 12,44,
  | 12,45,
  | 12,46,
  | 12,47,
  | 12,48,
  | 12,49,
  | 12,50,
  | 12,51,
  | 12,52,
  | 12,53,
  | 12,54,
  | 13,13,
  | 13,30,
  | 13,31,
  | 13,32,
  | 13,33,
  | 13,34,
  | 13,35,
  | 13,36,
  | 13,37,
  | 13,38,
  | 13,39,
  | 13,40,
  | 13,41,
  | 13,42,
  | 13,43,
  | 13,44,
  | 13,45,
  | 13,46,
  | 13,47,
  | 13,48,
  | 13,49,
  | 13,50,
  | 13,51,
  | 13,52,
  | 13,53,
  | 13,54,
  | 13,55,
  | 14,14,
  | 14,31,
  | 14,32,
  | 14,33,
  | 14,34,
  | 14,35,
  | 14,36,
  | 14,37,
  | 14,38,
  | 14,39,
  | 14,40,
  | 14,41,
  | 14,42,
  | 14,43,
  | 14,44,
  | 14,45,
  | 14,46,
  | 14,47,
  | 14,48,
  | 14,49,
  | 14,50,
  | 14,51,
  | 14,52,
  | 14,53,
  | 14,54,
  | 14,55,
  | 14,56,
  | 15,15,
  | 15,32,
  | 15,33,
  | 15,34,
  | 15,35,
  | 15,36,
  | 15,37,
  | 15,38,
  | 15,39,
  | 15,40,
  | 15,41,
  | 15,42,
  | 15,43,
  | 15,44,
  | 15,45,
  | 15,46,
  | 15,47,
  | 15,48,
  | 15,49,
  | 15,50,
  | 15,51,
  | 15,52,
  | 15,53,
  | 15,54,
  | 15,55,
  | 15,56,
  | 15,57,
  | 16,16,
  | 16,33,
  | 16,34,
  | 16,35,
  | 16,36,
  | 16,37,
  | 16,38,
  | 16,39,
  | 16,40,
  | 16,41,
  | 16,42,
  | 16,43,
  | 16,44,
  | 16,45,
  | 16,46,
  | 16,47,
  | 16,48,
  | 16,49,
  | 16,50,
  | 16,51,
  | 16,52,
  | 16,53,
  | 16,54,
  | 16,55,
  | 16,56,
  | 16,57,
  | 16,58,
  | 17,17,
  | 17,34,
  | 17,35,
  | 17,36,
  | 17,37,
  | 17,38,
  | 17,39,
  | 17,40,
  | 17,41,
  | 17,42,
  | 17,43,
  | 17,44,
  | 17,45,
  | 17,46,
  | 17,47,
  | 17,48,
  | 17,49,
  | 17,50,
  | 17,51,
  | 17,52,
  | 17,53,
  | 17,54,
  | 17,55,
  | 17,56,
  | 17,57,
  | 17,58,
  | 17,59,
  | 18,1,
  | 18,18,
  | 18,35,
  | 18,36,
  | 18,37,
  | 18,38,
  | 18,39,
  | 18,40,
  | 18,41,
  | 18,42,
  | 18,43,
  | 18,44,
  | 18,45,
  | 18,46,
  | 18,47,
  | 18,48,
  | 18,49,
  | 18,50,
  | 18,51,
  | 18,52,
  | 18,53,
  | 18,54,
  | 18,55,
  | 18,56,
  | 18,57,
  | 18,58,
  | 18,59,
  | 19,1,
  | 19,2,
  | 19,19,
  | 19,36,
  | 19,37,
  | 19,38,
  | 19,39,
  | 19,40,
  | 19,41,
  | 19,42,
  | 19,43,
  | 19,44,
  | 19,45,
  | 19,46,
  | 19,47,
  | 19,48,
  | 19,49,
  | 19,50,
  | 19,51,
  | 19,52,
  | 19,53,
  | 19,54,
  | 19,55,
  | 19,56,
  | 19,57,
  | 19,58,
  | 19,59,
  | 20,1,
  | 20,2,
  | 20,3,
  | 20,20,
  | 20,37,
  | 20,38,
  | 20,39,
  | 20,40,
  | 20,41,
  | 20,42,
  | 20,43,
  | 20,44,
  | 20,45,
  | 20,46,
  | 20,47,
  | 20,48,
  | 20,49,
  | 20,50,
  | 20,51,
  | 20,52,
  | 20,53,
  | 20,54,
  | 20,55,
  | 20,56,
  | 20,57,
  | 20,58,
  | 20,59,
  | 21,1,
  | 21,2,
  | 21,3,
  | 21,4,
  | 21,21,
  | 21,38,
  | 21,39,
  | 21,40,
  | 21,41,
  | 21,42,
  | 21,43,
  | 21,44,
  | 21,45,
  | 21,46,
  | 21,47,
  | 21,48,
  | 21,49,
  | 21,50,
  | 21,51,
  | 21,52,
  | 21,53,
  | 21,54,
  | 21,55,
  | 21,56,
  | 21,57,
  | 21,58,
  | 21,59,
  | 22,1,
  | 22,2,
  | 22,3,
  | 22,4,
  | 22,5,
  | 22,22,
  | 22,39,
  | 22,40,
  | 22,41,
  | 22,42,
  | 22,43,
  | 22,44,
  | 22,45,
  | 22,46,
  | 22,47,
  | 22,48,
  | 22,49,
  | 22,50,
  | 22,51,
  | 22,52,
  | 22,53,
  | 22,54,
  | 22,55,
  | 22,56,
  | 22,57,
  | 22,58,
  | 22,59,
  | 23,1,
  | 23,2,
  | 23,3,
  | 23,4,
  | 23,5,
  | 23,6,
  | 23,23,
  | 23,40,
  | 23,41,
  | 23,42,
  | 23,43,
  | 23,44,
  | 23,45,
  | 23,46,
  | 23,47,
  | 23,48,
  | 23,49,
  | 23,50,
  | 23,51,
  | 23,52,
  | 23,53,
  | 23,54,
  | 23,55,
  | 23,56,
  | 23,57,
  | 23,58,
  | 23,59,
  | 24,1,
  | 24,2,
  | 24,3,
  | 24,4,
  | 24,5,
  | 24,6,
  | 24,7,
  | 24,24,
  | 24,41,
  | 24,42,
  | 24,43,
  | 24,44,
  | 24,45,
  | 24,46,
  | 24,47,
  | 24,48,
  | 24,49,
  | 24,50,
  | 24,51,
  | 24,52,
  | 24,53,
  | 24,54,
  | 24,55,
  | 24,56,
  | 24,57,
  | 24,58,
  | 24,59,
  | 25,1,
  | 25,2,
  | 25,3,
  | 25,4,
  | 25,5,
  | 25,6,
  | 25,7,
  | 25,8,
  | 25,25,
  | 25,42,
  | 25,43,
  | 25,44,
  | 25,45,
  | 25,46,
  | 25,47,
  | 25,48,
  | 25,49,
  | 25,50,
  | 25,51,
  | 25,52,
  | 25,53,
  | 25,54,
  | 25,55,
  | 25,56,
  | 25,57,
  | 25,58,
  | 25,59,
  | 26,1,
  | 26,2,
  | 26,3,
  | 26,4,
  | 26,5,
  | 26,6,
  | 26,7,
  | 26,8,
  | 26,9,
  | 26,26,
  | 26,43,
  | 26,44,
  | 26,45,
  | 26,46,
  | 26,47,
  | 26,48,
  | 26,49,
  | 26,50,
  | 26,51,
  | 26,52,
  | 26,53,
  | 26,54,
  | 26,55,
  | 26,56,
  | 26,57,
  | 26,58,
  | 26,59,
  | 27,1,
  | 27,2,
  | 27,3,
  | 27,4,
  | 27,5,
  | 27,6,
  | 27,7,
  | 27,8,
  | 27,9,
  | 27,10,
  | 27,27,
  | 27,44,
  | 27,45,
  | 27,46,
  | 27,47,
  | 27,48,
  | 27,49,
  | 27,50,
  | 27,51,
  | 27,52,
  | 27,53,
  | 27,54,
  | 27,55,
  | 27,56,
  | 27,57,
  | 27,58,
  | 27,59,
  | 28,1,
  | 28,2,
  | 28,3,
  | 28,4,
  | 28,5,
  | 28,6,
  | 28,7,
  | 28,8,
  | 28,9,
  | 28,10,
  | 28,11,
  | 28,28,
  | 28,45,
  | 28,46,
  | 28,47,
  | 28,48,
  | 28,49,
  | 28,50,
  | 28,51,
  | 28,52,
  | 28,53,
  | 28,54,
  | 28,55,
  | 28,56,
  | 28,57,
  | 28,58,
  | 28,59,
  | 29,1,
  | 29,2,
  | 29,3,
  | 29,4,
  | 29,5,
  | 29,6,
  | 29,7,
  | 29,8,
  | 29,9,
  | 29,10,
  | 29,11,
  | 29,12,
  | 29,29,
  | 29,46,
  | 29,47,
  | 29,48,
  | 29,49,
  | 29,50,
  | 29,51,
  | 29,52,
  | 29,53,
  | 29,54,
  | 29,55,
  | 29,56,
  | 29,57,
  | 29,58,
  | 29,59,
  | 30,1,
  | 30,2,
  | 30,3,
  | 30,4,
  | 30,5,
  | 30,6,
  | 30,7,
  | 30,8,
  | 30,9,
  | 30,10,
  | 30,11,
  | 30,12,
  | 30,13,
  | 30,30,
  | 30,47,
  | 30,48,
  | 30,49,
  | 30,50,
  | 30,51,
  | 30,52,
  | 30,53,
  | 30,54,
  | 30,55,
  | 30,56,
  | 30,57,
  | 30,58,
  | 30,59,
  | 31,1,
  | 31,2,
  | 31,3,
  | 31,4,
  | 31,5,
  | 31,6,
  | 31,7,
  | 31,8,
  | 31,9,
  | 31,10,
  | 31,11,
  | 31,12,
  | 31,13,
  | 31,14,
  | 31,31,
  | 31,48,
  | 31,49,
  | 31,50,
  | 31,51,
  | 31,52,
  | 31,53,
  | 31,54,
  | 31,55,
  | 31,56,
  | 31,57,
  | 31,58,
  | 31,59,
  | 32,1,
  | 32,2,
  | 32,3,
  | 32,4,
  | 32,5,
  | 32,6,
  | 32,7,
  | 32,8,
  | 32,9,
  | 32,10,
  | 32,11,
  | 32,12,
  | 32,13,
  | 32,14,
  | 32,15,
  | 32,32,
  | 32,49,
  | 32,50,
  | 32,51,
  | 32,52,
  | 32,53,
  | 32,54,
  | 32,55,
  | 32,56,
  | 32,57,
  | 32,58,
  | 32,59,
  | 33,1,
  | 33,2,
  | 33,3,
  | 33,4,
  | 33,5,
  | 33,6,
  | 33,7,
  | 33,8,
  | 33,9,
  | 33,10,
  | 33,11,
  | 33,12,
  | 33,13,
  | 33,14,
  | 33,15,
  | 33,16,
  | 33,33,
  | 33,50,
  | 33,51,
  | 33,52,
  | 33,53,
  | 33,54,
  | 33,55,
  | 33,56,
  | 33,57,
  | 33,58,
  | 33,59,
  | 34,1,
  | 34,2,
  | 34,3,
  | 34,4,
  | 34,5,
  | 34,6,
  | 34,7,
  | 34,8,
  | 34,9,
  | 34,10,
  | 34,11,
  | 34,12,
  | 34,13,
  | 34,14,
  | 34,15,
  | 34,16,
  | 34,17,
  | 34,34,
  | 34,51,
  | 34,52,
  | 34,53,
  | 34,54,
  | 34,55,
  | 34,56,
  | 34,57,
  | 34,58,
  | 34,59,
  | 35,1,
  | 35,2,
  | 35,3,
  | 35,4,
  | 35,5,
  | 35,6,
  | 35,7,
  | 35,8,
  | 35,9,
  | 35,10,
  | 35,11,
  | 35,12,
  | 35,13,
  | 35,14,
  | 35,15,
  | 35,16,
  | 35,17,
  | 35,18,
  | 35,35,
  | 35,52,
  | 35,53,
  | 35,54,
  | 35,55,
  | 35,56,
  | 35,57,
  | 35,58,
  | 35,59,
  | 36,1,
  | 36,2,
  | 36,3,
  | 36,4,
  | 36,5,
  | 36,6,
  | 36,7,
  | 36,8,
  | 36,9,
  | 36,10,
  | 36,11,
  | 36,12,
  | 36,13,
  | 36,14,
  | 36,15,
  | 36,16,
  | 36,17,
  | 36,18,
  | 36,19,
  | 36,36,
  | 36,53,
  | 36,54,
  | 36,55,
  | 36,56,
  | 36,57,
  | 36,58,
  | 36,59,
  | 37,1,
  | 37,2,
  | 37,3,
  | 37,4,
  | 37,5,
  | 37,6,
  | 37,7,
  | 37,8,
  | 37,9,
  | 37,10,
  | 37,11,
  | 37,12,
  | 37,13,
  | 37,14,
  | 37,15,
  | 37,16,
  | 37,17,
  | 37,18,
  | 37,19,
  | 37,20,
  | 37,37,
  | 37,54,
  | 37,55,
  | 37,56,
  | 37,57,
  | 37,58,
  | 37,59,
  | 38,1,
  | 38,2,
  | 38,3,
  | 38,4,
  | 38,5,
  | 38,6,
  | 38,7,
  | 38,8,
  | 38,9,
  | 38,10,
  | 38,11,
  | 38,12,
  | 38,13,
  | 38,14,
  | 38,15,
  | 38,16,
  | 38,17,
  | 38,18,
  | 38,19,
  | 38,20,
  | 38,21,
  | 38,38,
  | 38,55,
  | 38,56,
  | 38,57,
  | 38,58,
  | 38,59,
  | 39,1,
  | 39,2,
  | 39,3,
  | 39,4,
  | 39,5,
  | 39,6,
  | 39,7,
  | 39,8,
  | 39,9,
  | 39,10,
  | 39,11,
  | 39,12,
  | 39,13,
  | 39,14,
  | 39,15,
  | 39,16,
  | 39,17,
  | 39,18,
  | 39,19,
  | 39,20,
  | 39,21,
  | 39,22,
  | 39,39,
  | 39,56,
  | 39,57,
  | 39,58,
  | 39,59,
  | 40,1,
  | 40,2,
  | 40,3,
  | 40,4,
  | 40,5,
  | 40,6,
  | 40,7,
  | 40,8,
  | 40,9,
  | 40,10,
  | 40,11,
  | 40,12,
  | 40,13,
  | 40,14,
  | 40,15,
  | 40,16,
  | 40,17,
  | 40,18,
  | 40,19,
  | 40,20,
  | 40,21,
  | 40,22,
  | 40,23,
  | 40,40,
  | 40,57,
  | 40,58,
  | 40,59,
  | 41,1,
  | 41,2,
  | 41,3,
  | 41,4,
  | 41,5,
  | 41,6,
  | 41,7,
  | 41,8,
  | 41,9,
  | 41,10,
  | 41,11,
  | 41,12,
  | 41,13,
  | 41,14,
  | 41,15,
  | 41,16,
  | 41,17,
  | 41,18,
  | 41,19,
  | 41,20,
  | 41,21,
  | 41,22,
  | 41,23,
  | 41,24,
  | 41,41,
  | 41,58,
  | 41,59,
  | 42,1,
  | 42,2,
  | 42,3,
  | 42,4,
  | 42,5,
  | 42,6,
  | 42,7,
  | 42,8,
  | 42,9,
  | 42,10,
  | 42,11,
  | 42,12,
  | 42,13,
  | 42,14,
  | 42,15,
  | 42,16,
  | 42,17,
  | 42,18,
  | 42,19,
  | 42,20,
  | 42,21,
  | 42,22,
  | 42,23,
  | 42,24,
  | 42,25,
  | 42,42,
  | 42,59,
  | 43,1,
  | 43,2,
  | 43,3,
  | 43,4,
  | 43,5,
  | 43,6,
  | 43,7,
  | 43,8,
  | 43,9,
  | 43,10,
  | 43,11,
  | 43,12,
  | 43,13,
  | 43,14,
  | 43,15,
  | 43,16,
  | 43,17,
  | 43,18,
  | 43,19,
  | 43,20,
  | 43,21,
  | 43,22,
  | 43,23,
  | 43,24,
  | 43,25,
  | 43,26,
  | 43,43,
  | 44,2,
  | 44,3,
  | 44,4,
  | 44,5,
  | 44,6,
  | 44,7,
  | 44,8,
  | 44,9,
  | 44,10,
  | 44,11,
  | 44,12,
  | 44,13,
  | 44,14,
  | 44,15,
  | 44,16,
  | 44,17,
  | 44,18,
  | 44,19,
  | 44,20,
  | 44,21,
  | 44,22,
  | 44,23,
  | 44,24,
  | 44,25,
  | 44,26,
  | 44,27,
  | 44,44,
  | 45,3,
  | 45,4,
  | 45,5,
  | 45,6,
  | 45,7,
  | 45,8,
  | 45,9,
  | 45,10,
  | 45,11,
  | 45,12,
  | 45,13,
  | 45,14,
  | 45,15,
  | 45,16,
  | 45,17,
  | 45,18,
  | 45,19,
  | 45,20,
  | 45,21,
  | 45,22,
  | 45,23,
  | 45,24,
  | 45,25,
  | 45,26,
  | 45,27,
  | 45,28,
  | 45,45,
  | 46,4,
  | 46,5,
  | 46,6,
  | 46,7,
  | 46,8,
  | 46,9,
  | 46,10,
  | 46,11,
  | 46,12,
  | 46,13,
  | 46,14,
  | 46,15,
  | 46,16,
  | 46,17,
  | 46,18,
  | 46,19,
  | 46,20,
  | 46,21,
  | 46,22,
  | 46,23,
  | 46,24,
  | 46,25,
  | 46,26,
  | 46,27,
  | 46,28,
  | 46,29,
  | 46,46,
  | 47,5,
  | 47,6,
  | 47,7,
  | 47,8,
  | 47,9,
  | 47,10,
  | 47,11,
  | 47,12,
  | 47,13,
  | 47,14,
  | 47,15,
  | 47,16,
  | 47,17,
  | 47,18,
  | 47,19,
  | 47,20,
  | 47,21,
  | 47,22,
  | 47,23,
  | 47,24,
  | 47,25,
  | 47,26,
  | 47,27,
  | 47,28,
  | 47,29,
  | 47,30,
  | 47,47,
  | 48,6,
  | 48,7,
  | 48,8,
  | 48,9,
  | 48,10,
  | 48,11,
  | 48,12,
  | 48,13,
  | 48,14,
  | 48,15,
  | 48,16,
  | 48,17,
  | 48,18,
  | 48,19,
  | 48,20,
  | 48,21,
  | 48,22,
  | 48,23,
  | 48,24,
  | 48,25,
  | 48,26,
  | 48,27,
  | 48,28,
  | 48,29,
  | 48,30,
  | 48,31,
  | 48,48,
  | 49,7,
  | 49,8,
  | 49,9,
  | 49,10,
  | 49,11,
  | 49,12,
  | 49,13,
  | 49,14,
  | 49,15,
  | 49,16,
  | 49,17,
  | 49,18,
  | 49,19,
  | 49,20,
  | 49,21,
  | 49,22,
  | 49,23,
  | 49,24,
  | 49,25,
  | 49,26,
  | 49,27,
  | 49,28,
  | 49,29,
  | 49,30,
  | 49,31,
  | 49,32,
  | 49,49,
  | 50,8,
  | 50,9,
  | 50,10,
  | 50,11,
  | 50,12,
  | 50,13,
  | 50,14,
  | 50,15,
  | 50,16,
  | 50,17,
  | 50,18,
  | 50,19,
  | 50,20,
  | 50,21,
  | 50,22,
  | 50,23,
  | 50,24,
  | 50,25,
  | 50,26,
  | 50,27,
  | 50,28,
  | 50,29,
  | 50,30,
  | 50,31,
  | 50,32,
  | 50,33,
  | 50,50,
  | 51,9,
  | 51,10,
  | 51,11,
  | 51,12,
  | 51,13,
  | 51,14,
  | 51,15,
  | 51,16,
  | 51,17,
  | 51,18,
  | 51,19,
  | 51,20,
  | 51,21,
  | 51,22,
  | 51,23,
  | 51,24,
  | 51,25,
  | 51,26,
  | 51,27,
  | 51,28,
  | 51,29,
  | 51,30,
  | 51,31,
  | 51,32,
  | 51,33,
  | 51,34,
  | 51,51,
  | 52,10,
  | 52,11,
  | 52,12,
  | 52,13,
  | 52,14,
  | 52,15,
  | 52,16,
  | 52,17,
  | 52,18,
  | 52,19,
  | 52,20,
  | 52,21,
  | 52,22,
  | 52,23,
  | 52,24,
  | 52,25,
  | 52,26,
  | 52,27,
  | 52,28,
  | 52,29,
  | 52,30,
  | 52,31,
  | 52,32,
  | 52,33,
  | 52,34,
  | 52,35,
  | 52,52,
  | 53,11,
  | 53,12,
  | 53,13,
  | 53,14,
  | 53,15,
  | 53,16,
  | 53,17,
  | 53,18,
  | 53,19,
  | 53,20,
  | 53,21,
  | 53,22,
  | 53,23,
  | 53,24,
  | 53,25,
  | 53,26,
  | 53,27,
  | 53,28,
  | 53,29,
  | 53,30,
  | 53,31,
  | 53,32,
  | 53,33,
  | 53,34,
  | 53,35,
  | 53,36,
  | 53,53,
  | 54,12,
  | 54,13,
  | 54,14,
  | 54,15,
  | 54,16,
  | 54,17,
  | 54,18,
  | 54,19,
  | 54,20,
  | 54,21,
  | 54,22,
  | 54,23,
  | 54,24,
  | 54,25,
  | 54,26,
  | 54,27,
  | 54,28,
  | 54,29,
  | 54,30,
  | 54,31,
  | 54,32,
  | 54,33,
  | 54,34,
  | 54,35,
  | 54,36,
  | 54,37,
  | 54,54,
  | 55,13,
  | 55,14,
  | 55,15,
  | 55,16,
  | 55,17,
  | 55,18,
  | 55,19,
  | 55,20,
  | 55,21,
  | 55,22,
  | 55,23,
  | 55,24,
  | 55,25,
  | 55,26,
  | 55,27,
  | 55,28,
  | 55,29,
  | 55,30,
  | 55,31,
  | 55,32,
  | 55,33,
  | 55,34,
  | 55,35,
  | 55,36,
  | 55,37,
  | 55,38,
  | 55,55,
  | 56,14,
  | 56,15,
  | 56,16,
  | 56,17,
  | 56,18,
  | 56,19,
  | 56,20,
  | 56,21,
  | 56,22,
  | 56,23,
  | 56,24,
  | 56,25,
  | 56,26,
  | 56,27,
  | 56,28,
  | 56,29,
  | 56,30,
  | 56,31,
  | 56,32,
  | 56,33,
  | 56,34,
  | 56,35,
  | 56,36,
  | 56,37,
  | 56,38,
  | 56,39,
  | 56,56,
  | 57,15,
  | 57,16,
  | 57,17,
  | 57,18,
  | 57,19,
  | 57,20,
  | 57,21,
  | 57,22,
  | 57,23,
  | 57,24,
  | 57,25,
  | 57,26,
  | 57,27,
  | 57,28,
  | 57,29,
  | 57,30,
  | 57,31,
  | 57,32,
  | 57,33,
  | 57,34,
  | 57,35,
  | 57,36,
  | 57,37,
  | 57,38,
  | 57,39,
  | 57,40,
  | 57,57,
  | 58,16,
  | 58,17,
  | 58,18,
  | 58,19,
  | 58,20,
  | 58,21,
  | 58,22,
  | 58,23,
  | 58,24,
  | 58,25,
  | 58,26,
  | 58,27,
  | 58,28,
  | 58,29,
  | 58,30,
  | 58,31,
  | 58,32,
  | 58,33,
  | 58,34,
  | 58,35,
  | 58,36,
  | 58,37,
  | 58,38,
  | 58,39,
  | 58,40,
  | 58,41,
  | 58,58,
  | 59,17,
  | 59,18,
  | 59,19,
  | 59,20,
  | 59,21,
  | 59,22,
  | 59,23,
  | 59,24,
  | 59,25,
  | 59,26,
  | 59,27,
  | 59,28,
  | 59,29,
  | 59,30,
  | 59,31,
  | 59,32,
  | 59,33,
  | 59,34,
  | 59,35,
  | 59,36,
  | 59,37,
  | 59,38,
  | 59,39,
  | 59,40,
  | 59,41,
  | 59,42,
  | 59,59 |];

t = 281;

indexes = [|
    0,3,
  | 0,8,
  | 0,45,
  | 1,13,
  | 1,23,
  | 1,49,
  | 2,16,
  | 2,21,
  | 2,22,
  | 2,24,
  | 2,30,
  | 2,44,
  | 2,51,
  | 2,54,
  | 2,57,
  | 3,34,
  | 4,10,
  | 4,17,
  | 4,18,
  | 4,19,
  | 4,20,
  | 4,21,
  | 4,26,
  | 4,28,
  | 4,33,
  | 4,36,
  | 4,40,
  | 4,41,
  | 4,42,
  | 4,47,
  | 4,48,
  | 4,53,
  | 4,55,
  | 5,28,
  | 5,33,
  | 5,37,
  | 5,42,
  | 5,44,
  | 5,55,
  | 5,56,
  | 6,16,
  | 6,22,
  | 6,24,
  | 6,30,
  | 6,31,
  | 6,36,
  | 6,53,
  | 6,54,
  | 6,57,
  | 7,25,
  | 7,28,
  | 7,33,
  | 7,42,
  | 7,44,
  | 7,51,
  | 7,56,
  | 8,10,
  | 8,19,
  | 8,20,
  | 8,29,
  | 8,41,
  | 8,46,
  | 8,47,
  | 8,53,
  | 9,28,
  | 9,33,
  | 9,38,
  | 9,40,
  | 9,42,
  | 9,44,
  | 9,56,
  | 10,19,
  | 10,20,
  | 10,29,
  | 10,41,
  | 10,43,
  | 10,47,
  | 10,53,
  | 11,24,
  | 11,48,
  | 12,17,
  | 12,18,
  | 12,19,
  | 12,20,
  | 12,21,
  | 12,26,
  | 12,28,
  | 12,33,
  | 12,36,
  | 12,40,
  | 12,41,
  | 12,42,
  | 12,47,
  | 12,52,
  | 12,53,
  | 12,55,
  | 12,56,
  | 13,17,
  | 13,18,
  | 13,19,
  | 13,20,
  | 13,21,
  | 13,26,
  | 13,28,
  | 13,33,
  | 13,36,
  | 13,40,
  | 13,41,
  | 13,42,
  | 13,44,
  | 13,47,
  | 13,53,
  | 13,55,
  | 14,17,
  | 14,18,
  | 14,19,
  | 14,20,
  | 14,21,
  | 14,26,
  | 14,28,
  | 14,33,
  | 14,36,
  | 14,40,
  | 14,41,
  | 14,42,
  | 14,43,
  | 14,47,
  | 14,53,
  | 14,55,
  | 15,25,
  | 15,28,
  | 15,32,
  | 15,33,
  | 15,42,
  | 15,44,
  | 15,56,
  | 16,22,
  | 16,24,
  | 16,30,
  | 16,31,
  | 16,33,
  | 16,34,
  | 16,35,
  | 16,54,
  | 16,56,
  | 16,57,
  | 16,58,
  | 17,22,
  | 17,29,
  | 17,45,
  | 18,20,
  | 18,21,
  | 18,27,
  | 18,45,
  | 18,51,
  | 19,20,
  | 19,41,
  | 19,42,
  | 19,45,
  | 19,46,
  | 19,47,
  | 19,49,
  | 19,53,
  | 20,37,
  | 20,45,
  | 20,46,
  | 20,47,
  | 20,49,
  | 20,53,
  | 21,45,
  | 21,47,
  | 22,23,
  | 22,24,
  | 22,30,
  | 22,31,
  | 22,34,
  | 22,35,
  | 22,54,
  | 22,56,
  | 22,57,
  | 24,30,
  | 24,31,
  | 24,34,
  | 24,35,
  | 24,42,
  | 24,54,
  | 24,56,
  | 24,57,
  | 25,28,
  | 25,33,
  | 25,42,
  | 25,44,
  | 25,56,
  | 26,30,
  | 26,45,
  | 26,47,
  | 26,51,
  | 26,58,
  | 27,28,
  | 27,33,
  | 27,37,
  | 27,42,
  | 27,44,
  | 27,56,
  | 27,57,
  | 28,32,
  | 28,38,
  | 28,45,
  | 28,54,
  | 28,57,
  | 28,58,
  | 29,46,
  | 29,48,
  | 29,49,
  | 30,31,
  | 30,34,
  | 30,35,
  | 30,50,
  | 30,54,
  | 30,56,
  | 30,57,
  | 31,37,
  | 31,39,
  | 31,54,
  | 31,57,
  | 32,33,
  | 32,38,
  | 32,42,
  | 32,44,
  | 32,56,
  | 33,38,
  | 33,45,
  | 33,54,
  | 33,58,
  | 34,54,
  | 34,56,
  | 34,57,
  | 35,40,
  | 35,41,
  | 35,54,
  | 35,57,
  | 36,41,
  | 36,45,
  | 36,51,
  | 36,54,
  | 37,51,
  | 37,55,
  | 37,58,
  | 38,42,
  | 38,44,
  | 38,56,
  | 39,43,
  | 40,44,
  | 40,45,
  | 40,51,
  | 41,44,
  | 41,45,
  | 41,46,
  | 41,49,
  | 41,53,
  | 42,45,
  | 42,54,
  | 42,58,
  | 44,54,
  | 44,58,
  | 45,47,
  | 45,53,
  | 45,55,
  | 46,47,
  | 46,49,
  | 46,52,
  | 46,53,
  | 47,49,
  | 49,53,
  | 50,52,
  | 51,55,
  | 53,55,
  | 54,56,
  | 54,57,
  | 56,57,
  | 56,58 |];

